(set-info :source |printed by MathSAT|)
(declare-fun call_firefly.garde3 () Bool)
(declare-fun call_firefly.ite23 () Int)
(declare-fun procs () Int)
(declare-fun call_firefly.ite21 () Int)
(declare-fun param_e2 () Bool)
(declare-fun call_firefly.garde8 () Bool)
(declare-fun param_e6 () Bool)
(declare-fun call_First.First () Int)
(declare-fun dirty () Int)
(declare-fun call_firefly.ite4 () Int)
(declare-fun call_firefly.ite35 () Int)
(declare-fun call_firefly.ite25 () Int)
(declare-fun call_firefly.ite33 () Int)
(declare-fun call_firefly.ite27 () Int)
(declare-fun call_First.flby () Int)
(declare-fun param_e3 () Bool)
(declare-fun call_firefly.ite18 () Int)
(declare-fun call_firefly.ite30 () Int)
(declare-fun call_firefly.ite20 () Int)
(declare-fun call_firefly.ite3 () Int)
(declare-fun call_Sofar.flby () Bool)
(declare-fun call_firefly.ite40 () Int)
(declare-fun call_firefly.ite26 () Int)
(declare-fun call_firefly.flby3 () Int)
(declare-fun param_e8 () Bool)
(declare-fun call_Sofar.Sofar () Bool)
(declare-fun shared () Int)
(declare-fun call_firefly.ite29 () Int)
(declare-fun call_firefly.ite37 () Int)
(declare-fun param_e1 () Bool)
(declare-fun call_firefly.ite13 () Int)
(declare-fun call_firefly.ite17 () Int)
(declare-fun _R4_ () Bool)
(declare-fun call_firefly.flby () Int)
(declare-fun call_firefly.ite36 () Int)
(declare-fun call_firefly.ite34 () Int)
(declare-fun call_firefly.ite19 () Int)
(declare-fun call_firefly.ite22 () Int)
(declare-fun _A1_ () Bool)
(declare-fun call_firefly.ite5 () Int)
(declare-fun call_firefly.ite39 () Int)
(declare-fun call_firefly.exclusive () Int)
(declare-fun call_firefly.ite24 () Int)
(declare-fun _OK_ () Bool)
(declare-fun exclusive () Int)
(declare-fun env () Bool)
(declare-fun call_firefly.dirty () Int)
(declare-fun param_e5 () Bool)
(declare-fun call_firefly.ite28 () Int)
(declare-fun call_firefly.ite31 () Int)
(declare-fun param_e4 () Bool)
(declare-fun call_firefly.ite16 () Int)
(declare-fun call_firefly.flby2 () Int)
(declare-fun call_firefly.ite14 () Int)
(declare-fun call_firefly.garde6 () Bool)
(declare-fun call_firefly.ite15 () Int)
(declare-fun call_firefly.ite32 () Int)
(declare-fun _A2_ () Bool)
(declare-fun call_firefly.ite7 () Int)
(declare-fun invalid () Int)
(declare-fun call_firefly.ite6 () Int)
(declare-fun param_i_invalid () Int)
(declare-fun call_excludes8.excludes () Bool)
(declare-fun call_firefly.ite10 () Int)
(declare-fun call_firefly.ite8 () Int)
(declare-fun call_firefly.ite () Int)
(declare-fun call_firefly.invalid () Int)
(declare-fun call_firefly.shared () Int)
(declare-fun _A3_ () Bool)
(declare-fun call_firefly.ite38 () Int)
(declare-fun call_firefly.ite9 () Int)
(declare-fun call_firefly.flby5 () Int)
(declare-fun call_firefly.flby4 () Int)
(declare-fun call_firefly.ite12 () Int)
(declare-fun param_e7 () Bool)
(declare-fun call_firefly.ite11 () Int)
(declare-fun call_firefly.ite2 () Int)
(declare-fun call_firefly.mem_invalid () Int)
(define-fun .def_1206 () Bool (= call_First.flby call_First.First))
(define-fun .def_1204 () Bool (= call_Sofar.flby call_Sofar.Sofar))
(define-fun .def_1018 () Bool (not param_e2))
(define-fun .def_999 () Bool (not param_e1))
(define-fun .def_1152 () Bool (and .def_999 .def_1018))
(define-fun .def_1046 () Bool (not param_e3))
(define-fun .def_1153 () Bool (and .def_1046 .def_1152))
(define-fun .def_1071 () Bool (not param_e4))
(define-fun .def_1154 () Bool (and .def_1071 .def_1153))
(define-fun .def_1088 () Bool (not param_e5))
(define-fun .def_1155 () Bool (and .def_1088 .def_1154))
(define-fun .def_1106 () Bool (not param_e6))
(define-fun .def_1156 () Bool (and .def_1106 .def_1155))
(define-fun .def_899 () Bool (not param_e7))
(define-fun .def_1157 () Bool (and .def_899 .def_1156))
(define-fun .def_883 () Bool (not param_e8))
(define-fun .def_1193 () Bool (and .def_883 .def_1157))
(define-fun .def_1186 () Bool (and param_e1 .def_1018))
(define-fun .def_1187 () Bool (and .def_1046 .def_1186))
(define-fun .def_1188 () Bool (and .def_1071 .def_1187))
(define-fun .def_1189 () Bool (and .def_1088 .def_1188))
(define-fun .def_1190 () Bool (and .def_1106 .def_1189))
(define-fun .def_1191 () Bool (and .def_899 .def_1190))
(define-fun .def_1192 () Bool (and .def_883 .def_1191))
(define-fun .def_1194 () Bool (or .def_1192 .def_1193))
(define-fun .def_1179 () Bool (and .def_999 param_e2))
(define-fun .def_1180 () Bool (and .def_1046 .def_1179))
(define-fun .def_1181 () Bool (and .def_1071 .def_1180))
(define-fun .def_1182 () Bool (and .def_1088 .def_1181))
(define-fun .def_1183 () Bool (and .def_1106 .def_1182))
(define-fun .def_1184 () Bool (and .def_899 .def_1183))
(define-fun .def_1185 () Bool (and .def_883 .def_1184))
(define-fun .def_1195 () Bool (or .def_1185 .def_1194))
(define-fun .def_1173 () Bool (and param_e3 .def_1152))
(define-fun .def_1174 () Bool (and .def_1071 .def_1173))
(define-fun .def_1175 () Bool (and .def_1088 .def_1174))
(define-fun .def_1176 () Bool (and .def_1106 .def_1175))
(define-fun .def_1177 () Bool (and .def_899 .def_1176))
(define-fun .def_1178 () Bool (and .def_883 .def_1177))
(define-fun .def_1196 () Bool (or .def_1178 .def_1195))
(define-fun .def_1168 () Bool (and param_e4 .def_1153))
(define-fun .def_1169 () Bool (and .def_1088 .def_1168))
(define-fun .def_1170 () Bool (and .def_1106 .def_1169))
(define-fun .def_1171 () Bool (and .def_899 .def_1170))
(define-fun .def_1172 () Bool (and .def_883 .def_1171))
(define-fun .def_1197 () Bool (or .def_1172 .def_1196))
(define-fun .def_1164 () Bool (and param_e5 .def_1154))
(define-fun .def_1165 () Bool (and .def_1106 .def_1164))
(define-fun .def_1166 () Bool (and .def_899 .def_1165))
(define-fun .def_1167 () Bool (and .def_883 .def_1166))
(define-fun .def_1198 () Bool (or .def_1167 .def_1197))
(define-fun .def_1161 () Bool (and param_e6 .def_1155))
(define-fun .def_1162 () Bool (and .def_899 .def_1161))
(define-fun .def_1163 () Bool (and .def_883 .def_1162))
(define-fun .def_1199 () Bool (or .def_1163 .def_1198))
(define-fun .def_1159 () Bool (and param_e7 .def_1156))
(define-fun .def_1160 () Bool (and .def_883 .def_1159))
(define-fun .def_1200 () Bool (or .def_1160 .def_1199))
(define-fun .def_1158 () Bool (and param_e8 .def_1157))
(define-fun .def_1201 () Bool (or .def_1158 .def_1200))
(define-fun .def_1202 () Bool (= call_excludes8.excludes .def_1201))
(define-fun .def_1150 () Bool (= call_firefly.flby call_firefly.mem_invalid))
(define-fun .def_1148 () Bool (= call_firefly.flby5 call_firefly.shared))
(define-fun .def_1146 () Bool (= call_firefly.flby4 call_firefly.exclusive))
(define-fun .def_1144 () Bool (= call_firefly.flby3 call_firefly.dirty))
(define-fun .def_1142 () Bool (= call_firefly.flby2 call_firefly.invalid))
(define-fun .def_1140 () Bool (= dirty call_firefly.dirty))
(define-fun .def_1137 () Bool (= invalid call_firefly.invalid))
(define-fun .def_1131 () Bool (and _A1_ _A2_))
(define-fun .def_1132 () Bool (and _A3_ .def_1131))
(define-fun .def_1133 () Bool (and _R4_ .def_1132))
(define-fun .def_1134 () Bool (= _OK_ .def_1133))
(define-fun .def_1126 () Bool (= call_firefly.ite36 call_firefly.ite37))
(define-fun .def_1127 () Bool (or param_e7 .def_1126))
(define-fun .def_1123 () Bool (= call_firefly.ite37 call_firefly.ite34))
(define-fun .def_1124 () Bool (or .def_899 .def_1123))
(define-fun .def_1119 () Bool (= call_firefly.ite8 call_firefly.ite5))
(define-fun .def_1120 () Bool (or .def_899 .def_1119))
(define-fun .def_1116 () Bool (= call_firefly.ite7 call_firefly.ite8))
(define-fun .def_1117 () Bool (or param_e7 .def_1116))
(define-fun .def_1121 () Bool (and .def_1117 .def_1120))
(define-fun .def_1125 () Bool (and .def_1121 .def_1124))
(define-fun .def_1128 () Bool (and .def_1125 .def_1127))
(define-fun .def_1112 () Bool (= call_firefly.ite17 call_firefly.ite18))
(define-fun .def_1113 () Bool (or param_e6 .def_1112))
(define-fun .def_1109 () Bool (= call_firefly.ite15 call_firefly.ite18))
(define-fun .def_1110 () Bool (or .def_1106 .def_1109))
(define-fun .def_1105 () Bool (= call_firefly.ite9 call_firefly.ite4))
(define-fun .def_1107 () Bool (or .def_1105 .def_1106))
(define-fun .def_1101 () Bool (= call_firefly.ite9 call_firefly.ite8))
(define-fun .def_1103 () Bool (or .def_1101 param_e6))
(define-fun .def_1108 () Bool (and .def_1103 .def_1107))
(define-fun .def_1111 () Bool (and .def_1108 .def_1110))
(define-fun .def_1114 () Bool (and .def_1111 .def_1113))
(define-fun .def_1096 () Bool (= call_firefly.ite38 call_firefly.ite37))
(define-fun .def_1097 () Bool (or param_e5 .def_1096))
(define-fun .def_1092 () Bool (= call_firefly.ite38 call_firefly.ite33))
(define-fun .def_1093 () Bool (or .def_1088 .def_1092))
(define-fun .def_1087 () Bool (= call_firefly.ite27 call_firefly.ite24))
(define-fun .def_1089 () Bool (or .def_1087 .def_1088))
(define-fun .def_1083 () Bool (= call_firefly.ite26 call_firefly.ite27))
(define-fun .def_1085 () Bool (or .def_1083 param_e5))
(define-fun .def_1090 () Bool (and .def_1085 .def_1089))
(define-fun .def_1094 () Bool (and .def_1090 .def_1093))
(define-fun .def_1098 () Bool (and .def_1094 .def_1097))
(define-fun .def_1079 () Bool (= call_firefly.ite28 call_firefly.ite27))
(define-fun .def_1080 () Bool (or param_e4 .def_1079))
(define-fun .def_1075 () Bool (= call_firefly.ite28 call_firefly.ite23))
(define-fun .def_1076 () Bool (or .def_1071 .def_1075))
(define-fun .def_1070 () Bool (= call_firefly.ite19 call_firefly.ite14))
(define-fun .def_1072 () Bool (or .def_1070 .def_1071))
(define-fun .def_1066 () Bool (= call_firefly.ite19 call_firefly.ite18))
(define-fun .def_1068 () Bool (or .def_1066 param_e4))
(define-fun .def_1073 () Bool (and .def_1068 .def_1072))
(define-fun .def_1077 () Bool (and .def_1073 .def_1076))
(define-fun .def_1081 () Bool (and .def_1077 .def_1080))
(define-fun .def_1061 () Bool (= call_firefly.ite39 call_firefly.ite38))
(define-fun .def_1062 () Bool (or param_e3 .def_1061))
(define-fun .def_1057 () Bool (= call_firefly.ite39 call_firefly.ite32))
(define-fun .def_1058 () Bool (or .def_1046 .def_1057))
(define-fun .def_1053 () Bool (= call_firefly.ite29 call_firefly.ite28))
(define-fun .def_1054 () Bool (or param_e3 .def_1053))
(define-fun .def_1049 () Bool (= call_firefly.ite22 call_firefly.ite29))
(define-fun .def_1050 () Bool (or .def_1046 .def_1049))
(define-fun .def_1045 () Bool (= call_firefly.ite10 call_firefly.ite3))
(define-fun .def_1047 () Bool (or .def_1045 .def_1046))
(define-fun .def_1041 () Bool (= call_firefly.ite10 call_firefly.ite9))
(define-fun .def_1043 () Bool (or .def_1041 param_e3))
(define-fun .def_1048 () Bool (and .def_1043 .def_1047))
(define-fun .def_1051 () Bool (and .def_1048 .def_1050))
(define-fun .def_1055 () Bool (and .def_1051 .def_1054))
(define-fun .def_1059 () Bool (and .def_1055 .def_1058))
(define-fun .def_1063 () Bool (and .def_1059 .def_1062))
(define-fun .def_1036 () Bool (= call_firefly.ite40 call_firefly.ite39))
(define-fun .def_1037 () Bool (or param_e2 .def_1036))
(define-fun .def_1032 () Bool (= call_firefly.ite31 call_firefly.ite40))
(define-fun .def_1033 () Bool (or .def_1018 .def_1032))
(define-fun .def_1027 () Bool (= call_firefly.ite20 call_firefly.ite19))
(define-fun .def_1028 () Bool (or param_e2 .def_1027))
(define-fun .def_1023 () Bool (= call_firefly.ite13 call_firefly.ite20))
(define-fun .def_1024 () Bool (or .def_1018 .def_1023))
(define-fun .def_1017 () Bool (= call_firefly.ite11 call_firefly.ite2))
(define-fun .def_1019 () Bool (or .def_1017 .def_1018))
(define-fun .def_1013 () Bool (= call_firefly.ite11 call_firefly.ite10))
(define-fun .def_1015 () Bool (or .def_1013 param_e2))
(define-fun .def_1020 () Bool (and .def_1015 .def_1019))
(define-fun .def_1025 () Bool (and .def_1020 .def_1024))
(define-fun .def_1029 () Bool (and .def_1025 .def_1028))
(define-fun .def_1034 () Bool (and .def_1029 .def_1033))
(define-fun .def_1038 () Bool (and .def_1034 .def_1037))
(define-fun .def_1008 () Bool (= call_firefly.ite30 call_firefly.ite29))
(define-fun .def_1009 () Bool (or param_e1 .def_1008))
(define-fun .def_1004 () Bool (= call_firefly.ite21 call_firefly.ite30))
(define-fun .def_1005 () Bool (or .def_999 .def_1004))
(define-fun .def_998 () Bool (= call_firefly.ite12 call_firefly.ite))
(define-fun .def_1000 () Bool (or .def_998 .def_999))
(define-fun .def_994 () Bool (= call_firefly.ite12 call_firefly.ite11))
(define-fun .def_996 () Bool (or .def_994 param_e1))
(define-fun .def_1001 () Bool (and .def_996 .def_1000))
(define-fun .def_1006 () Bool (and .def_1001 .def_1005))
(define-fun .def_1010 () Bool (and .def_1006 .def_1009))
(define-fun .def_990 () Bool (= env call_Sofar.Sofar))
(define-fun .def_987 () Bool (= procs call_First.First))
(define-fun .def_981 () Bool (<= 0 exclusive))
(define-fun .def_955 () Bool (not env))
(define-fun .def_982 () Bool (or .def_955 .def_981))
(define-fun .def_984 () Bool (= .def_982 _A3_))
(define-fun .def_976 () Bool (<= 0 dirty))
(define-fun .def_977 () Bool (or .def_955 .def_976))
(define-fun .def_979 () Bool (= .def_977 _A2_))
(define-fun .def_967 () Int (+ invalid dirty))
(define-fun .def_961 () Int (* (- 1) procs))
(define-fun .def_968 () Int (+ .def_961 .def_967))
(define-fun .def_969 () Int (+ shared .def_968))
(define-fun .def_970 () Int (+ exclusive .def_969))
(define-fun .def_971 () Bool (<= .def_970 0))
(define-fun .def_972 () Bool (or .def_955 .def_971))
(define-fun .def_974 () Bool (= .def_972 _A1_))
(define-fun .def_953 () Bool (<= shared procs))
(define-fun .def_956 () Bool (or .def_953 .def_955))
(define-fun .def_958 () Bool (= .def_956 _R4_))
(define-fun .def_950 () Bool (= shared call_firefly.shared))
(define-fun .def_947 () Bool (= exclusive call_firefly.exclusive))
(define-fun .def_951 () Bool (and .def_947 .def_950))
(define-fun .def_959 () Bool (and .def_951 .def_958))
(define-fun .def_975 () Bool (and .def_959 .def_974))
(define-fun .def_980 () Bool (and .def_975 .def_979))
(define-fun .def_985 () Bool (and .def_980 .def_984))
(define-fun .def_988 () Bool (and .def_985 .def_987))
(define-fun .def_991 () Bool (and .def_988 .def_990))
(define-fun .def_1011 () Bool (and .def_991 .def_1010))
(define-fun .def_1039 () Bool (and .def_1011 .def_1038))
(define-fun .def_1064 () Bool (and .def_1039 .def_1063))
(define-fun .def_1082 () Bool (and .def_1064 .def_1081))
(define-fun .def_1099 () Bool (and .def_1082 .def_1098))
(define-fun .def_1115 () Bool (and .def_1099 .def_1114))
(define-fun .def_1129 () Bool (and .def_1115 .def_1128))
(define-fun .def_1135 () Bool (and .def_1129 .def_1134))
(define-fun .def_1138 () Bool (and .def_1135 .def_1137))
(define-fun .def_1141 () Bool (and .def_1138 .def_1140))
(define-fun .def_1143 () Bool (and .def_1141 .def_1142))
(define-fun .def_1145 () Bool (and .def_1143 .def_1144))
(define-fun .def_1147 () Bool (and .def_1145 .def_1146))
(define-fun .def_1149 () Bool (and .def_1147 .def_1148))
(define-fun .def_1151 () Bool (and .def_1149 .def_1150))
(define-fun .def_1203 () Bool (and .def_1151 .def_1202))
(define-fun .def_1205 () Bool (and .def_1203 .def_1204))
(define-fun .def_1207 () Bool (and .def_1205 .def_1206))
(define-fun .def_943 () Bool (= param_i_invalid call_First.flby))
(define-fun .def_936 () Bool (<= 0 param_i_invalid))
(define-fun .def_938 () Bool (and .def_936 call_excludes8.excludes))
(define-fun .def_940 () Bool (= .def_938 call_Sofar.flby))
(define-fun .def_934 () Bool (= call_firefly.flby5 0))
(define-fun .def_931 () Bool (= call_firefly.flby4 0))
(define-fun .def_928 () Bool (= call_firefly.flby3 0))
(define-fun .def_925 () Bool (= call_firefly.flby2 call_firefly.mem_invalid))
(define-fun .def_921 () Bool (= param_i_invalid call_firefly.flby))
(define-fun .def_916 () Bool (= call_firefly.ite25 0))
(define-fun .def_915 () Bool (not call_firefly.garde8))
(define-fun .def_917 () Bool (or .def_915 .def_916))
(define-fun .def_911 () Bool (= call_firefly.ite15 1))
(define-fun .def_909 () Bool (not call_firefly.garde6))
(define-fun .def_912 () Bool (or .def_909 .def_911))
(define-fun .def_905 () Bool (= call_firefly.ite22 0))
(define-fun .def_903 () Bool (not call_firefly.garde3))
(define-fun .def_906 () Bool (or .def_903 .def_905))
(define-fun .def_897 () Bool (= call_firefly.ite16 call_firefly.ite17))
(define-fun .def_900 () Bool (or .def_897 .def_899))
(define-fun .def_892 () Bool (= call_firefly.ite35 call_firefly.ite36))
(define-fun .def_893 () Bool (or .def_883 .def_892))
(define-fun .def_887 () Bool (= call_firefly.ite6 call_firefly.ite7))
(define-fun .def_888 () Bool (or .def_883 .def_887))
(define-fun .def_881 () Bool (= call_firefly.ite25 call_firefly.ite26))
(define-fun .def_884 () Bool (or .def_881 .def_883))
(define-fun .def_889 () Bool (and .def_884 .def_888))
(define-fun .def_894 () Bool (and .def_889 .def_893))
(define-fun .def_901 () Bool (and .def_894 .def_900))
(define-fun .def_907 () Bool (and .def_901 .def_906))
(define-fun .def_913 () Bool (and .def_907 .def_912))
(define-fun .def_918 () Bool (and .def_913 .def_917))
(define-fun .def_922 () Bool (and .def_918 .def_921))
(define-fun .def_926 () Bool (and .def_922 .def_925))
(define-fun .def_929 () Bool (and .def_926 .def_928))
(define-fun .def_932 () Bool (and .def_929 .def_931))
(define-fun .def_935 () Bool (and .def_932 .def_934))
(define-fun .def_941 () Bool (and .def_935 .def_940))
(define-fun .def_944 () Bool (and .def_941 .def_943))
(define-fun .def_1208 () Bool (and .def_944 .def_1207))
(assert .def_1208)
